CMD:
./solvers/bin/cadical --plain --no-reduce -t 1600 ./data/cnfs//gen39/gen39.90.cnf

c --- [ banner ] -------------------------------------------------------------
c 
c CaDiCaL SAT Solver
c Copyright (c) 2016-2024
c A. Biere, M. Fleury, N. Froleyks, K. Fazekas, F. Pollitt, T. Faller
c JKU Linz, University of Freiburg, TU Wien
c 
c Version 2.1.3 5296d3d2a9bf48c154ab2acb5e44625776d821bf
c g++ (Gentoo 12.3.1_p20230526 p2) 12.3.1 20230526 -Wall -Wextra -O3 -DNDEBUG
c Sat Aug 9 07:26:21 PDT 2025 Linux cedar2.int.cedar.computecanada.ca 5.14.0-362.24.2.el9_3.x86_64 x86_64
c 
c --- [ limit ] --------------------------------------------------------------
c 
c setting time limit to 1600 seconds real time (due to '-t 1600')
c 
c --- [ parsing input ] ------------------------------------------------------
c 
c reading DIMACS file from './data/cnfs//gen39/gen39.90.cnf'
c opening file to read './data/cnfs//gen39/gen39.90.cnf'
c found 'p cnf 536612 1510785' header
c parsed 1510785 clauses in 0.22 seconds process time
c 
c --- [ options ] ------------------------------------------------------------
c 
c   --compact=false                (different from default 'true')
c   --decompose=false              (different from default 'true')
c   --deduplicate=false            (different from default 'true')
c   --elim=false                   (different from default 'true')
c   --probe=false                  (different from default 'true')
c   --reduce=false                 (different from default 'true')
c   --subsume=false                (different from default 'true')
c   --ternary=false                (different from default 'true')
c   --transred=false               (different from default 'true')
c   --vivify=false                 (different from default 'true')
c 
c --- [ solving ] ------------------------------------------------------------
c 
c time measured in process time since initialization
c 
c  seconds   reductions  redundant   irredundant
c          MB    restarts       trail        variables
c           level   conflicts       glue           remaining
c 
c *  0.22 247  0 0   0    0    0  0% 0 1510466 535527 100%
c {  0.27 258  0 0   0    0    0  0% 0 1510466 535527 100%
c }  0.48 262 12798 0  16 1000  857 41% 1 1510466 535527 100%
c [  0.48 262  0 0  16 1000  857  0% 0 1510466 535527 100%
c O  0.54 262 6184 0  16 1002  859 37% 65 1510466 535527 100%
c i  0.54 262 3153 0  16 1009  863 19% 28 1510466 535494 100%
c i  0.54 262 2179 0  16 1135  986 14% 17 1510466 535105 100%
c i  0.54 262 2176 0  16 1139  988 14% 17 1510466 535094 100%
c i  0.54 262 2113 0  16 1255 1066 14% 20 1510466 535081 100%
c i  0.55 262 2098 0  16 1291 1099 13% 21 1510466 535070 100%
c i  0.55 262 2053 0  16 1404 1177 13% 22 1510466 535057 100%
c i  0.55 262 2040 0  16 1440 1210 13% 22 1510466 535046 100%
c i  0.55 262 1999 0  16 1553 1288 13% 23 1510466 535033 100%
c i  0.56 262 1987 0  16 1589 1321 13% 23 1510466 535022 100%
c i  0.56 262 1947 0  16 1702 1399 13% 23 1510466 535009 100%
c i  0.56 262 1935 0  16 1738 1432 12% 23 1510466 534998 100%
c i  0.56 262 1896 0  16 1851 1510 12% 23 1510466 534985 100%
c i  0.57 263 1883 0  16 1887 1543 12% 24 1510466 534974 100%
c i  0.57 263 1845 0  16 2000 1621 12% 24 1510466 534961 100%
c ]  0.71 263 1552 0  17 3006 2491 16% 14 1510466 534961 100%
c 
c  seconds      reductions  redundant   irredundant
c          MB       restarts       trail        variables
c             level    conflicts       glue           remaining
c 
c {  0.71 263 12798 0  17 3006 2491 41% 1 1510466 534961 100%
c F  0.71 263 12784 0  18 3007 2492 41% 1 1510466 534961 100%
c i  0.71 263 12674 0  18 3015 2498 41% 1 1510466 534924 100%
c i  0.71 263 12632 0  19 3019 2500 40% 1 1510466 534906 100%
c i  0.71 263 12619 0  20 3020 2500 40% 1 1510466 534898 100%
c i  0.71 263 12083 0  21 3067 2535 39% 1 1510466 534876 100%
c i  0.72 263 11043 0  22 3196 2625 35% 1 1510466 534865 100%
c i  0.74 263 10515 0  32 3254 2678 34% 1 1510466 534858 100%
c i  0.97 263 9780 0  60 3343 2763 33% 2 1510466 534846 100%
c i  1.00 263 9187 0  84 3425 2840 31% 2 1510466 534835 100%
c i  1.04 263 8212 0 115 3594 2993 28% 2 1510466 534823 100%
c i  1.21 263 6762 0 182 3924 3292 25% 2 1510466 534812 100%
c i  1.50 263 4097 0 367 5198 4409 17% 2 1510466 534799 100%
c i  1.53 263 4025 0 383 5256 4460 17% 2 1510466 534791 100%
c i  1.54 263 3924 0 395 5341 4528 17% 2 1510466 534747 100%
c #  1.63 263 3294 0 424 6011 5100 15% 2 1510466 534747 100%
c }  1.89 263 2687 0 542 7006 5922 13% 2 1510466 534747 100%
c [  1.89 263 1552 0 542 7006 5922 16% 14 1510466 534747 100%
c I  2.32 263 689 0 544 10013 8567 11% 13 1510466 534747 100%
c i  2.33 264 687 0 544 10036 8585 10% 13 1510466 534726 100%
c 
c  seconds    reductions   redundant    irredundant
c          MB     restarts        trail         variables
c            level    conflicts       glue            remaining
c 
c i  2.51 264 546 0 545 11492 9840  9% 11 1510466 534673 100%
c i  2.67 264 449 0 546 13349 11459  8% 9 1510466 534666 100%
c i  2.68 264 447 0 546 13415 11518  8% 9 1510466 534657 100%
c i  2.70 264 437 0 546 13640 11707  8% 9 1510466 534649 100%
c i  2.71 264 435 0 547 13702 11754  8% 9 1510466 534595 100%
c i  2.71 264 433 0 547 13764 11814  8% 9 1510466 534474 100%
c i  2.71 264 433 0 547 13768 11817  8% 9 1510466 534395 100%
c i  2.71 264 432 0 547 13784 11828  8% 9 1510466 534343 100%
c i  2.72 264 430 0 547 13835 11852  8% 9 1510466 534226 100%
c i  2.73 264 425 0 547 13948 11953  7% 9 1510466 534212 100%
c i  2.75 264 408 0 547 14354 12313  7% 9 1510466 534205 100%
c i  2.79 264 387 0 547 14910 12763  7% 9 1510466 534174 100%
c ]  2.80 264 383 0 547 15006 12849  7% 9 1510466 534174 100%
c {  2.80 264 2687 0 547 15006 12849 13% 2 1510466 534174 100%
c B  2.80 264 2682 0 549 15014 12857 13% 2 1510466 534174 100%
c i  2.91 264 2528 0 613 15321 13115 13% 2 1510466 534130 100%
c i  2.92 264 2505 0 622 15366 13145 13% 2 1510466 534100 100%
c i  2.94 264 2460 0 638 15458 13224 12% 2 1510466 533978 100%
c i  2.94 264 2459 0 638 15459 13224 12% 2 1510466 533970 100%
c i  2.96 264 2364 0 640 15688 13398 12% 2 1510466 533962 100%
c 
c  seconds     reductions    redundant   irredundant
c          MB      restarts         trail        variables
c            level     conflicts        glue           remaining
c 
c i  2.96 264 2340 0 642 15750 13440 12% 2 1510466 533916 99%
c i  2.96 264 2323 0 642 15794 13472 12% 2 1510466 533908 99%
c i  2.97 264 2309 0 642 15832 13499 12% 2 1510466 533871 99%
c i  2.97 264 2293 0 642 15874 13529 12% 2 1510466 533863 99%
c i  2.97 264 2276 0 642 15923 13561 12% 2 1510466 533855 99%
c i  2.97 264 2265 0 642 15955 13584 12% 2 1510466 533847 99%
c i  2.97 264 2250 0 642 15998 13611 11% 2 1510466 533839 99%
c i  2.97 264 2231 0 642 16050 13651 11% 2 1510466 533831 99%
c i  2.98 264 2212 0 642 16101 13693 11% 2 1510466 533823 99%
c i  2.98 264 2195 0 642 16145 13727 11% 2 1510466 533815 99%
c i  2.98 264 2191 0 642 16155 13736 11% 2 1510466 533807 99%
c i  2.98 264 2184 0 642 16177 13751 11% 2 1510466 533799 99%
c i  2.98 264 2179 0 642 16192 13763 11% 2 1510466 533792 99%
c }  2.98 264 2171 0 642 16213 13780 11% 2 1510466 531766 99%
c 0  2.98 264 2171 0 642 16213 13780 11% 2 1510466 531766 99%
c 
c --- [ result ] -------------------------------------------------------------
c 
s UNSATISFIABLE
c 
c --- [ run-time profiling ] -------------------------------------------------
c 
c process time taken by individual solving procedures
c (percentage relative to process time for solving)
c 
c         2.76  100.00% search
c         1.57   56.89% unstable
c         1.14   41.28% stable
c         0.22    8.01% parse
c         0.05    1.82% lucky
c         0.00    0.00% simplify
c   =================================
c         2.76   92.57% solve
c 
c last line shows process time for solving
c (percentage relative to total process time)
c 
c --- [ statistics ] ---------------------------------------------------------
c 
c chronological:              9553        58.92 %  of conflicts
c conflicts:                 16213      5875.50    per second
c decisions:                250214     90676.07    per second
c fixed:                      4590         0.86 %  of all variables
c learned:                   15011        92.59 %  per conflict
c learned_lits:             254106       100.00 %  learned literals
c minimized:                     0         0.00 %  learned literals
c shrunken:                  65832        25.91 %  learned literals
c minishrunken:               9643         3.79 %  learned literals
c otfs:                        354         2.18 %  of conflict
c propagations:           50970398        18.47 M  per second
c rephased:                      5      3242.60    interval
c restarts:                    642        25.25    interval
c stabilizing:                   2        61.69 %  of conflicts
c subsumed:                   1177         0.08 %  of all clauses
c strengthened:                347         0.02 %  of all clauses
c 
c seconds are measured in process time for solving
c 
c --- [ resources ] ----------------------------------------------------------
c 
c total process time since initialization:         2.98    seconds
c total real time since initialization:            3.00    seconds
c maximum resident set size of process:          263.07    MB
c 
c --- [ shutting down ] ------------------------------------------------------
c 
c exit 20
